20 1 1
21 2 1
20 3 1
21 4 1
20 5 1
21 6 1
23 7 1
24 8 1
23 9 1
24 10 1
23 11 1
24 12 1
26 13 1
27 14 1
26 15 1
27 16 1
26 17 1
27 18 1
19 20 1
19 21 1
19 22 1
22 23 1
22 24 1
22 25 1
25 26 1
25 27 1
25 28 1
